50, 62425
968, 2551
229, 2552
155, 2553
116, 2554
771, 2555
341, 2556
553, 2557
129, 2558
288, 2559
618, 2560
844, 2561
367, 2562
449, 2563
980, 2564
701, 2565
180, 2566
763, 2567
556, 2568
461, 2569
582, 2570
973, 2571
486, 2572
248, 2573
765, 2574
439, 2575
423, 2576
444, 2577
947, 2578
669, 2579
47, 2580
664, 2581
821, 2582
84, 2583
901, 2584
407, 2585
224, 2586
481, 2587
855, 2588
420, 2589
206, 2590
671, 2591
953, 2592
597, 2593
1, 2594
231, 2595
466, 2596
443, 2597
340, 2598
342, 2599
173, 2600
